RAW/CMTY/fspd/CMT4Y.vrp_seed-7.out
852.8316372	12.484	27.162
