RAW/CMTY/fspd/CMT4Y.vrp_seed-7.sol
Route #1: 5 90 71 123 122 124 125 33 72 91 45 15 52 107 65 93 88 40 94 19 64 42 92 44 137 37 108 103
Route #2: 76 49 10 54 106 73 117 89 39 75 105 30 104 34 74 79 21 118 50 130 9 62 38
Route #3: 47 56 146 149 4 143 109 145 144 12
Route #4: 139 110 18 55 134 25 95 67 13 136 41 66 111 135 141 150 148 87 142 147 17 63
Route #5: 126 16 127 53 129 29 128 84 20 131 83 2 100
Route #6: 77 27 81 138 57 6 132 98 23 69 7 61 112 48 60 8 80 22 120 1 119 32 11 78
Route #7: 46 102 68 133 14 58 96 24 97 86 43 99 114 113 26 140 82 31 28 70 116 115 36 85 35 121 3 59 101 51
Cost 852.831637